Reading model...
...model read.
creating competitive generators file...
...competitive generators recorded.
Loading data...
.. real-time data read.
Compiling instance...
...instance created.
Creating Offer Mitigation (model will solve as dispatch if TRUE)...
NOTE: storage offers will not be mitigated
...storage offer mitigation file created
Converting model to MPEC...
...converted
NOTE: initial MIP solve with only storage competitive to get feasible solution
Solving...

Welcome to IBM(R) ILOG(R) CPLEX(R) Interactive Optimizer 12.9.0.0
  with Simplex, Mixed Integer & Barrier Optimizers
5725-A06 5725-A29 5724-Y48 5724-Y49 5724-Y54 5724-Y55 5655-Y21
Copyright IBM Corp. 1988, 2019.  All Rights Reserved.

Type 'help' for a list of available commands.
Type 'help' followed by a command name for more
information on commands.

CPLEX> Logfile 'cplex.log' closed.
Logfile 'C:\Users\llavin\Desktop\test85\logs\tmpysa_w6y6.cplex.log' open.
CPLEX> New value for parallel optimization mode: -1
CPLEX> New value for mixed integer optimality gap tolerance: 0.001
CPLEX> New value for deterministic time limit in ticks: 100000
CPLEX> Problem 'C:\Users\llavin\Desktop\test85\logs\tmphbw_ew66.pyomo.lp' read.
Read time = 0.53 sec. (27.84 ticks)
CPLEX> Problem name         : C:\Users\llavin\Desktop\test85\logs\tmphbw_ew66.pyomo.lp
Objective sense      : Maximize
Variables            :  107779  [Nneg: 1,  Box: 44054,  Free: 8928,
                                 Binary: 54796]
Objective nonzeros   :   17426
Linear constraints   :  246995  [Less: 82866,  Greater: 118424,  Equal: 45705]
  Nonzeros           :  580829
  RHS nonzeros       :  134591

Variables            : Min LB: -5000.000        Max UB: 1000000.       
Objective nonzeros   : Min   : 0.1944444        Max   : 2500.000       
Linear constraints   :
  Nonzeros           : Min   : 0.1944444        Max   : 1000000.       
  RHS nonzeros       : Min   : 0.1944444        Max   : 1000000.       
CPLEX> CPXPARAM_Parallel                                -1
CPXPARAM_DetTimeLimit                            100000
CPXPARAM_MIP_Tolerances_MIPGap                   0.001
Tried aggregator 3 times.
MIP Presolve eliminated 181665 rows and 41385 columns.
MIP Presolve added 6048 rows and 0 columns.
MIP Presolve modified 48882 coefficients.
Aggregator did 25857 substitutions.
Reduced MIP has 45521 rows, 38905 columns, and 126187 nonzeros.
Reduced MIP has 15322 binaries, 0 generals, 0 SOSs, and 0 indicators.
Presolve time = 0.61 sec. (333.59 ticks)
Probing fixed 885 vars, tightened 6940 bounds.
Probing time = 0.36 sec. (13.15 ticks)
Tried aggregator 2 times.
MIP Presolve eliminated 1990 rows and 1798 columns.
MIP Presolve modified 5512 coefficients.
Aggregator did 48 substitutions.
Reduced MIP has 43483 rows, 37059 columns, and 120265 nonzeros.
Reduced MIP has 14423 binaries, 0 generals, 0 SOSs, and 0 indicators.
Presolve time = 0.22 sec. (207.81 ticks)
Probing fixed 0 vars, tightened 155 bounds.
Probing time = 0.48 sec. (14.23 ticks)
Clique table members: 78729.
MIP emphasis: balance optimality and feasibility.
MIP search method: dynamic search.
Parallel mode: opportunistic, using up to 32 threads.
Root relaxation solution time = 0.86 sec. (1622.35 ticks)

        Nodes                                         Cuts/
   Node  Left     Objective  IInf  Best Integer    Best Bound    ItCnt     Gap

      0     0        0.0000     8                      0.0000     8934         
*     0+    0                            0.0000        0.0000             0.00%
      0     0        cutoff              0.0000        0.0000     8934    0.00%
Elapsed time = 3.17 sec. (2572.55 ticks, tree = 0.01 MB, solutions = 1)

Root node processing (before b&c):
  Real time             =    3.20 sec. (2576.34 ticks)
Parallel b&c, 32 threads:
  Real time             =    0.00 sec. (0.00 ticks)
  Sync time (average)   =    0.00 sec.
  Wait time (average)   =    0.00 sec.
                          ------------
Total (root+branch&cut) =    3.20 sec. (2576.34 ticks)

Solution pool: 1 solution saved.

MIP - Integer optimal solution:  Objective =  0.0000000000e+00
Solution time =    3.22 sec.  Iterations = 8934  Nodes = 0
Deterministic time = 2576.65 ticks  (800.45 ticks/sec)

CPLEX> Incumbent solution written to file 'C:\Users\llavin\Desktop\test85\logs\tmp151_8da0.cplex.sol'.
CPLEX> NOTE: no warmstart specified for MIP iteration, default behavior is true
NOTE: resolving with all competitive generators using storage-only solution to warmstart
Solving...

Welcome to IBM(R) ILOG(R) CPLEX(R) Interactive Optimizer 12.9.0.0
  with Simplex, Mixed Integer & Barrier Optimizers
5725-A06 5725-A29 5724-Y48 5724-Y49 5724-Y54 5724-Y55 5655-Y21
Copyright IBM Corp. 1988, 2019.  All Rights Reserved.

Type 'help' for a list of available commands.
Type 'help' followed by a command name for more
information on commands.

CPLEX> Logfile 'cplex.log' closed.
Logfile 'C:\Users\llavin\Desktop\test85\logs\tmp42kol2dg.cplex.log' open.
CPLEX> New value for parallel optimization mode: -1
CPLEX> New value for mixed integer optimality gap tolerance: 0.001
CPLEX> New value for deterministic time limit in ticks: 100000
CPLEX> Problem 'C:\Users\llavin\Desktop\test85\logs\tmpv81qx5rn.pyomo.lp' read.
Read time = 0.52 sec. (27.89 ticks)
CPLEX> MIP start file 'C:\Users\llavin\Desktop\test85\logs\tmp80b1axbf.cplex.mst' read.
CPLEX> Problem name         : C:\Users\llavin\Desktop\test85\logs\tmpv81qx5rn.pyomo.lp
Objective sense      : Maximize
Variables            :  109219  [Nneg: 1,  Box: 45494,  Free: 8928,
                                 Binary: 54796]
Objective nonzeros   :   18818
Linear constraints   :  246995  [Less: 82866,  Greater: 118424,  Equal: 45705]
  Nonzeros           :  580829
  RHS nonzeros       :  134591

Variables            : Min LB: -5000.000        Max UB: 1000000.       
Objective nonzeros   : Min   : 0.1944444        Max   : 2500.000       
Linear constraints   :
  Nonzeros           : Min   : 0.1944444        Max   : 1000000.       
  RHS nonzeros       : Min   : 0.1944444        Max   : 1000000.       
CPLEX> CPXPARAM_Parallel                                -1
CPXPARAM_DetTimeLimit                            100000
CPXPARAM_MIP_Tolerances_MIPGap                   0.001
1 of 1 MIP starts provided solutions.
MIP start 'm1' defined initial solution with objective 0.0000.
Tried aggregator 3 times.
MIP Presolve eliminated 181665 rows and 42825 columns.
MIP Presolve added 6048 rows and 0 columns.
MIP Presolve modified 48882 coefficients.
Aggregator did 25857 substitutions.
Reduced MIP has 45521 rows, 38905 columns, and 126187 nonzeros.
Reduced MIP has 15322 binaries, 0 generals, 0 SOSs, and 0 indicators.
Presolve time = 0.58 sec. (334.30 ticks)
Probing fixed 885 vars, tightened 6940 bounds.
Probing time = 0.34 sec. (13.15 ticks)
Tried aggregator 2 times.
MIP Presolve eliminated 1990 rows and 1798 columns.
MIP Presolve modified 5512 coefficients.
Aggregator did 48 substitutions.
Reduced MIP has 43483 rows, 37059 columns, and 120265 nonzeros.
Reduced MIP has 14423 binaries, 0 generals, 0 SOSs, and 0 indicators.
Presolve time = 0.23 sec. (207.82 ticks)
Probing fixed 0 vars, tightened 151 bounds.
Probing time = 0.48 sec. (14.21 ticks)
Clique table members: 78263.
MIP emphasis: balance optimality and feasibility.
MIP search method: dynamic search.
Parallel mode: opportunistic, using up to 32 threads.
Root relaxation solution time = 0.92 sec. (1698.11 ticks)

        Nodes                                         Cuts/
   Node  Left     Objective  IInf  Best Integer    Best Bound    ItCnt     Gap

*     0+    0                            0.0000  9130040.8930              --- 
      0     0     8826.2430   420        0.0000     8826.2430     9272     --- 
*     0+    0                            0.0000     8826.2430              --- 
      0     0     8774.7411   319        0.0000     Cuts: 839     9604     --- 
      0     0     8774.7411   418        0.0000     Cuts: 998    10047     --- 
      0     0     8774.7411   196        0.0000     Cuts: 882    10205     --- 
      0     0     8774.7411   202        0.0000     Cuts: 106    10345     --- 
      0     8    infeasible              0.0000      Cuts: 85    10720     --- 
Elapsed time = 10.36 sec. (5603.85 ticks, tree = 0.02 MB, solutions = 2)
    179    66     6406.6000    94        0.0000     8018.9641    12301     --- 
    525     9     7977.7959   135        0.0000     8018.9641    10720     --- 
    928    65        cutoff              0.0000     8018.9641    12236     --- 
   1313    92        cutoff              0.0000     8018.9641    12627     --- 
   1658   388     2967.5078    31        0.0000     8018.9641    14697     --- 
   2063   495     3143.9003    34        0.0000     8018.9641    15414     --- 
   2489   742     3454.4433    43        0.0000     8018.9641    18196     --- 
   2888  1251     3104.9426    35        0.0000     8018.9641    23162     --- 
   3228  1237     4279.7568    66        0.0000     8018.9641    21825     --- 
   4618  1788     1971.1093    35        0.0000     7852.1470    30179     --- 
Elapsed time = 32.55 sec. (8711.94 ticks, tree = 18.04 MB, solutions = 2)
   6169  2959        cutoff              0.0000     6849.2309    62297     --- 
   7713  3123    infeasible              0.0000     6406.6000    68170     --- 
   8318  3559     1441.8914    30        0.0000     6406.6000    75365     --- 
*  8376  2653      integral     0        0.0000        0.0000   101154    0.00%

GUB cover cuts applied:  2
Cover cuts applied:  2
Implied bound cuts applied:  31
Flow cuts applied:  130
Mixed integer rounding cuts applied:  73
Gomory fractional cuts applied:  49

Root node processing (before b&c):
  Real time             =    7.12 sec. (5584.95 ticks)
Parallel b&c, 32 threads:
  Real time             =   42.86 sec. (10551.15 ticks)
  Sync time (average)   =    3.06 sec.
  Wait time (average)   =    0.00 sec.
                          ------------
Total (root+branch&cut) =   49.98 sec. (16136.10 ticks)

Solution pool: 2 solutions saved.

MIP - Integer optimal solution:  Objective =  9.3920940843e-06
Solution time =   50.02 sec.  Iterations = 101154  Nodes = 8376
Deterministic time = 16136.41 ticks  (322.63 ticks/sec)

CPLEX> Incumbent solution written to file 'C:\Users\llavin\Desktop\test85\logs\tmpynrlr7xw.cplex.sol'.
CPLEX> Exporting results... 
